&CONTROL
  calculation = 'scf'
  etot_conv_thr =   4.8000000000d-04
  forc_conv_thr =   1.0000000000d-04
  outdir = './out/'
  prefix = 'aiida'
  pseudo_dir = './pseudo/'
  tprnfor = .true.
  tstress = .true.
  verbosity = 'high'
/
&SYSTEM
  degauss =   1.4699723600d-02
  ecutrho =   3.6000000000d+02
  ecutwfc =   4.5000000000d+01
  ibrav = 0
  nat = 48
  nosym = .false.
  ntyp = 1
  occupations = 'smearing'
  smearing = 'cold'
  nbnd=173
/
&ELECTRONS
  conv_thr =   9.6000000000d-09
  electron_maxstep = 80
  mixing_beta =   4.0000000000d-01
/
ATOMIC_SPECIES
C      12.0107 C.pbe-n-kjpaw_psl.1.0.0.UPF
ATOMIC_POSITIONS crystal
C            0.2252633571       0.0043668407       0.2500010132 
C            0.2252633572       0.2543668449       0.2500010132 
C            0.2252633571       0.5043668151       0.2500010132 
C            0.2252633572       0.7543668151       0.2500010132 
C            0.5585966706       0.0043668407       0.2500010132 
C            0.5585966706       0.2543668449       0.2500010132 
C            0.5585966707       0.5043668151       0.2500010132 
C            0.5585966706       0.7543668151       0.2500010132 
C            0.8919300437       0.0043668407       0.2500010132 
C            0.8919300437       0.2543668449       0.2500010132 
C            0.8919300437       0.5043668151       0.2500010132 
C            0.8919300437       0.7543668151       0.2500010132 
C            0.0585909225       0.1293945610       0.2500010132 
C            0.0585909225       0.3793945611       0.2500010132 
C            0.0585909225       0.6293945313       0.2500010132 
C            0.0585909225       0.8793945313       0.2500010132 
C            0.3919242620       0.1293945610       0.2500010132 
C            0.3919242621       0.3793945611       0.2500010132 
C            0.3919242620       0.6293945313       0.2500010132 
C            0.3919242621       0.8793945313       0.2500010132 
C            0.7252575755       0.1293945610       0.2500010132 
C            0.7252575755       0.3793945611       0.2500010132 
C            0.7252575755       0.6293945313       0.2500010132 
C            0.7252575755       0.8793945313       0.2500010132 
C            0.2810064852       0.1293628365       0.2500019968 
C            0.2810064852       0.3793628216       0.2500019968 
C            0.2810064852       0.6293628216       0.2500019968 
C            0.2810064852       0.8793628216       0.2500019968 
C            0.6143398285       0.1293628365       0.2500019968 
C            0.6143398285       0.3793628216       0.2500019968 
C            0.6143398285       0.6293628216       0.2500019968 
C            0.6143398285       0.8793628216       0.2500019968 
C            0.9476731420       0.1293628365       0.2500019968 
C            0.9476731419       0.3793628216       0.2500019968 
C            0.9476731420       0.6293628216       0.2500019968 
C            0.9476731419       0.8793628216       0.2500019968 
C            0.1143335775       0.0043672426       0.2500010132 
C            0.1143335774       0.2543672324       0.2500010132 
C            0.1143335775       0.5043672323       0.2500010132 
C            0.1143335774       0.7543672323       0.2500010132 
C            0.4476669132       0.0043672426       0.2500010132 
C            0.4476669133       0.2543672324       0.2500010132 
C            0.4476669132       0.5043672323       0.2500010132 
C            0.4476669133       0.7543672323       0.2500010132 
C            0.7810002565       0.0043672426       0.2500010132 
C            0.7810002565       0.2543672324       0.2500010132 
C            0.7810002565       0.5043672323       0.2500010132 
C            0.7810002565       0.7543672323       0.2500010132 
K_POINTS automatic
3 4 4 0 0 0
CELL_PARAMETERS angstrom
     12.7957544327       0.0000000000       0.0000000000
      0.0000605579       9.8865690229       0.0000000000
      0.0000000000       0.0000000000       9.5584468842