num_bands         =   173
num_wann          =   120 

!dis_win_max =  5.0
!dis_win_min =  -20.0
!dis_froz_max = 5.0
!dis_froz_min = -20.0

begin projections
C1 :sp2;pz
C2 :sp2;pz
C3 :sp2;pz
C4 :sp2;pz
C5 :sp2;pz
C6 :sp2;pz
C7 :sp2;pz
C8 :sp2;pz
C9 :sp2;pz
C10 :sp2;pz
C11 :sp2;pz
C12 :sp2;pz
C13 :sp2;pz
C14 :sp2;pz
C15 :sp2;pz
C16 :sp2;pz
C17 :sp2;pz
C18 :sp2;pz
C19 :sp2;pz
C20 :sp2;pz
C21 :sp2;pz
C22 :sp2;pz
C23 :sp2;pz
C24 :sp2;pz
C25 :pz
C26 :pz
C27 :pz
C28 :pz
C29 :pz
C30 :pz
C31 :pz
C32 :pz
C33 :pz
C34 :pz
C35 :pz
C36 :pz
C37 :pz
C38 :pz
C39 :pz
C40 :pz
C41 :pz
C42 :pz
C43 :pz
C44 :pz
C45 :pz
C46 :pz
C47 :pz
C48 :pz
end projections

!site_symmetry = .true.
!write_hr = .true.
bands_plot = .true.
wannier_plot = .true.
write_xyz = .true.

wannier_plot_supercell = 1
write_hr = .true.
write_tb = .true.
!exclude_bands=

begin kpoint_path
G  0.0  0.0  0.0  K  0.6666666666 0.3333333333  0.0
K  0.6666666666 0.3333333333  0.0  M  0.0  0.5  0.0
end kpoint_path

begin unit_cell_cart
angstrom
      4.9213480949       0.0000000000       0.0000000000
     -1.2303373075       2.1310060717       0.0000000000
      0.0000000000       0.0000000000      19.6853923798
end unit_cell_cart

begin atoms_frac
C1            0.2252633571       0.0043668407       0.2500010132 
C2            0.2252633572       0.2543668449       0.2500010132 
C3            0.2252633571       0.5043668151       0.2500010132 
C4            0.2252633572       0.7543668151       0.2500010132 
C5            0.5585966706       0.0043668407       0.2500010132 
C6            0.5585966706       0.2543668449       0.2500010132 
C7            0.5585966707       0.5043668151       0.2500010132 
C8            0.5585966706       0.7543668151       0.2500010132 
C9            0.8919300437       0.0043668407       0.2500010132 
C10            0.8919300437       0.2543668449       0.2500010132 
C11            0.8919300437       0.5043668151       0.2500010132 
C12            0.8919300437       0.7543668151       0.2500010132 
C13            0.0585909225       0.1293945610       0.2500010132 
C14            0.0585909225       0.3793945611       0.2500010132 
C15            0.0585909225       0.6293945313       0.2500010132 
C16            0.0585909225       0.8793945313       0.2500010132 
C17            0.3919242620       0.1293945610       0.2500010132 
C18            0.3919242621       0.3793945611       0.2500010132 
C19            0.3919242620       0.6293945313       0.2500010132 
C20            0.3919242621       0.8793945313       0.2500010132 
C21            0.7252575755       0.1293945610       0.2500010132 
C22            0.7252575755       0.3793945611       0.2500010132 
C23            0.7252575755       0.6293945313       0.2500010132 
C24            0.7252575755       0.8793945313       0.2500010132 
C25            0.2810064852       0.1293628365       0.2500019968 
C26            0.2810064852       0.3793628216       0.2500019968 
C27            0.2810064852       0.6293628216       0.2500019968 
C28            0.2810064852       0.8793628216       0.2500019968 
C29            0.6143398285       0.1293628365       0.2500019968 
C30            0.6143398285       0.3793628216       0.2500019968 
C31            0.6143398285       0.6293628216       0.2500019968 
C32            0.6143398285       0.8793628216       0.2500019968 
C33            0.9476731420       0.1293628365       0.2500019968 
C34            0.9476731419       0.3793628216       0.2500019968 
C35            0.9476731420       0.6293628216       0.2500019968 
C36            0.9476731419       0.8793628216       0.2500019968 
C37            0.1143335775       0.0043672426       0.2500010132 
C38            0.1143335774       0.2543672324       0.2500010132 
C39            0.1143335775       0.5043672323       0.2500010132 
C40            0.1143335774       0.7543672323       0.2500010132 
C41            0.4476669132       0.0043672426       0.2500010132 
C42            0.4476669133       0.2543672324       0.2500010132 
C43            0.4476669132       0.5043672323       0.2500010132 
C44            0.4476669133       0.7543672323       0.2500010132 
C45            0.7810002565       0.0043672426       0.2500010132 
C46            0.7810002565       0.2543672324       0.2500010132 
C47            0.7810002565       0.5043672323       0.2500010132 
C48            0.7810002565       0.7543672323       0.2500010132 
end atoms_frac

mp_grid           = 3 4 4
begin kpoints
  .00000000  0.00000000  0.00000000  2.083333e-02
  0.00000000  0.00000000  0.25000000  2.083333e-02
  0.00000000  0.00000000  0.50000000  2.083333e-02
  0.00000000  0.00000000  0.75000000  2.083333e-02
  0.00000000  0.25000000  0.00000000  2.083333e-02
  0.00000000  0.25000000  0.25000000  2.083333e-02
  0.00000000  0.25000000  0.50000000  2.083333e-02
  0.00000000  0.25000000  0.75000000  2.083333e-02
  0.00000000  0.50000000  0.00000000  2.083333e-02
  0.00000000  0.50000000  0.25000000  2.083333e-02
  0.00000000  0.50000000  0.50000000  2.083333e-02
  0.00000000  0.50000000  0.75000000  2.083333e-02
  0.00000000  0.75000000  0.00000000  2.083333e-02
  0.00000000  0.75000000  0.25000000  2.083333e-02
  0.00000000  0.75000000  0.50000000  2.083333e-02
  0.00000000  0.75000000  0.75000000  2.083333e-02
  0.33333333  0.00000000  0.00000000  2.083333e-02
  0.33333333  0.00000000  0.25000000  2.083333e-02
  0.33333333  0.00000000  0.50000000  2.083333e-02
  0.33333333  0.00000000  0.75000000  2.083333e-02
  0.33333333  0.25000000  0.00000000  2.083333e-02
  0.33333333  0.25000000  0.25000000  2.083333e-02
  0.33333333  0.25000000  0.50000000  2.083333e-02
  0.33333333  0.25000000  0.75000000  2.083333e-02
  0.33333333  0.50000000  0.00000000  2.083333e-02
  0.33333333  0.50000000  0.25000000  2.083333e-02
  0.33333333  0.50000000  0.50000000  2.083333e-02
  0.33333333  0.50000000  0.75000000  2.083333e-02
  0.33333333  0.75000000  0.00000000  2.083333e-02
  0.33333333  0.75000000  0.25000000  2.083333e-02
  0.33333333  0.75000000  0.50000000  2.083333e-02
  0.33333333  0.75000000  0.75000000  2.083333e-02
  0.66666667  0.00000000  0.00000000  2.083333e-02
  0.66666667  0.00000000  0.25000000  2.083333e-02
  0.66666667  0.00000000  0.50000000  2.083333e-02
  0.66666667  0.00000000  0.75000000  2.083333e-02
  0.66666667  0.25000000  0.00000000  2.083333e-02
  0.66666667  0.25000000  0.25000000  2.083333e-02
  0.66666667  0.25000000  0.50000000  2.083333e-02
  0.66666667  0.25000000  0.75000000  2.083333e-02
  0.66666667  0.50000000  0.00000000  2.083333e-02
  0.66666667  0.50000000  0.25000000  2.083333e-02
  0.66666667  0.50000000  0.50000000  2.083333e-02
  0.66666667  0.50000000  0.75000000  2.083333e-02
  0.66666667  0.75000000  0.00000000  2.083333e-02
  0.66666667  0.75000000  0.25000000  2.083333e-02
  0.66666667  0.75000000  0.50000000  2.083333e-02
  0.66666667  0.75000000  0.75000000  2.083333e-02 
end kpoints
