&BANDS
prefix="graf"
outdir="./"
filband= "Band-porfy.dat"
/
