num_bands         =   162
num_wann          =   162 

!dis_win_max =  2.0
!dis_win_min =  -4.0
!dis_froz_max = 2.0
!dis_froz_min = -4.0

begin projections
Fe:dxy;dxz;dyz;dz2,dx2-y2
N1:sp2;pz
N2:sp2;pz
N3:sp2;pz
N4:sp2;pz
C1: sp2;pz
C2: pz
end projections

site_symmetry = .true.
!write_hr = .true.
bands_plot = .true.
wannier_plot = .true.
write_xyz = .true.

symmetrize_eps = 0.01 
write_hr_diag = .true.

wannier_plot_supercell = 1
write_hr = .true.
write_tb = .true.
!exclude_bands=
begin kpoint_path
Y  0.0  0.5  0.0  G  0.0  0.0  0.0
G  0.0  0.0  0.0  X  0.5  0.0  0.0
X  0.5  0.0  0.0  S  0.5  0.5  0.0
end kpoint_path

begin unit_cell_cart
bohr
23.2375 0.0 0.0
0.0 24.149118  0.0
0.0 0.0 37.18
end unit_cell_cart

begin atoms_frac
   Fe      0.000000000     0.000000000     0.000000000
   N1      0.099999994    -0.111111134     0.000000000
   N2     -0.099999994    -0.111111134     0.000000000
   N3      0.099999994     0.111111104     0.000000000
   N4     -0.099999994     0.111111104     0.000000000
   C1     -0.400000006    -0.388888896     0.000000000
   C1     -0.400000006    -0.055555552     0.000000000
   C1     -0.400000006     0.277777791     0.000000000
   C1     -0.200000003    -0.388888896     0.000000000
   C1     -0.200000003    -0.055555552     0.000000000
   C1     -0.200000003     0.277777791     0.000000000
   C1      0.000000000    -0.388888896     0.000000000
   C1      0.000000000     0.277777791     0.000000000
   C1      0.200000018    -0.388888896     0.000000000
   C1      0.200000018    -0.055555552     0.000000000
   C1      0.200000018     0.277777791     0.000000000
   C1      0.400000006    -0.388888896     0.000000000
   C1      0.400000006    -0.055555552     0.000000000
   C1      0.400000006     0.277777791     0.000000000
   C2     -0.400000006    -0.277777791     0.000000000
   C2     -0.400000006     0.055555552     0.000000000
   C2     -0.400000006     0.388888896     0.000000000
   C2     -0.200000003    -0.277777791     0.000000000
   C1     -0.200000003     0.055555552     0.000000000
   C2     -0.200000003     0.388888896     0.000000000
   C2      0.000000000    -0.277777791     0.000000000
   C2      0.000000000     0.388888896     0.000000000
   C2      0.200000018    -0.277777791     0.000000000
   C1      0.200000018     0.055555552     0.000000000
   C2      0.200000018     0.388888896     0.000000000
   C2      0.400000006    -0.277777791     0.000000000
   C2      0.400000006     0.055555552     0.000000000
   C2      0.400000006     0.388888896     0.000000000
   C1     -0.300000012    -0.222222224     0.000000000
   C1     -0.300000012     0.111111104     0.000000000
   C1     -0.300000012     0.444444418     0.000000000
   C1     -0.099999994    -0.222222224     0.000000000
   C1     -0.099999994     0.444444418     0.000000000
   C1      0.099999994    -0.222222224     0.000000000
   C1      0.099999994     0.444444418     0.000000000
   C1      0.299999982    -0.222222224     0.000000000
   C1      0.299999982     0.111111104     0.000000000
   C1      0.299999982     0.444444418     0.000000000
   C1      0.499999970    -0.222222224     0.000000000
   C1      0.499999970     0.111111104     0.000000000
   C1      0.499999970     0.444444418     0.000000000
   C2     -0.300000012    -0.111111134     0.000000000
   C2     -0.300000012     0.222222209     0.000000000
   C2     -0.300000012     0.555555522     0.000000000
   C2     -0.099999994     0.222222209     0.000000000
   C2     -0.099999994     0.555555522     0.000000000
   C2      0.099999994     0.222222209     0.000000000
   C2      0.099999994     0.555555522     0.000000000
   C2      0.299999982    -0.111111134     0.000000000
   C2      0.299999982     0.222222209     0.000000000
   C2      0.299999982     0.555555522     0.000000000
   C2      0.499999970    -0.111111134     0.000000000
   C2      0.499999970     0.222222209     0.000000000
   C2      0.499999970     0.555555522     0.000000000
end atoms_frac

mp_grid           = 3 3 1

begin kpoints
  0.00000000  0.00000000  0.00000000  1.111111e-01
  0.00000000  0.33333333  0.00000000  1.111111e-01
  0.00000000  0.66666667  0.00000000  1.111111e-01
  0.33333333  0.00000000  0.00000000  1.111111e-01
  0.33333333  0.33333333  0.00000000  1.111111e-01
  0.33333333  0.66666667  0.00000000  1.111111e-01
  0.66666667  0.00000000  0.00000000  1.111111e-01
  0.66666667  0.33333333  0.00000000  1.111111e-01
  0.66666667  0.66666667  0.00000000  1.111111e-01
end kpoints
