&CONTROL
                 calculation = 'scf'
                restart_mode = 'from_scratch',
                      outdir = './',
                  pseudo_dir = '../../pseudo/',
                      prefix = 'graf'   ,
                   verbosity = 'high',
                  wf_collect = .true.,
                       nstep = 200
/
&SYSTEM
         ibrav           =  8 
         celldm(1)       =  23.2375
         celldm(2)       =  1.039230468 
         celldm(3)       =   1.60
         nat             =        59
         ntyp            =        3
         ecutwfc         =       50.00000000
         occupations     =  'smearing'
         smearing        =  'gauss'
         degauss         =        1.00000000e-03
	 nbnd		 = 162
!!         noncolin        =  .true.
!!         lspinorb        =  .true.
/
&electrons
         conv_thr        =        1.00000000e-08
         mixing_beta     =        3.00000000e-01
   /
ATOMIC_SPECIES
Fe     55.845 Fe.pbe-spn-kjpaw_psl.1.0.0.UPF
N      14.0067 N.pbe-n-kjpaw_psl.1.0.0.UPF
C 12.011 C.pbe-n-kjpaw_psl.1.0.0.UPF
ATOMIC_POSITIONS crystal
Fe            0.0000000000        0.0000000000        0.0000000000          
N             0.1022769790       -0.1090618961        0.0000000000          
N            -0.1022769790       -0.1090618961        0.0000000000          
N             0.1022769790        0.1090618661        0.0000000000          
N            -0.1022769790        0.1090618661        0.0000000000          
C            -0.4000000060       -0.3888888960        0.0000000000          
C            -0.4000000060       -0.0555555520        0.0000000000          
C            -0.4000000060        0.2777777910        0.0000000000          
C            -0.2000000030       -0.3888888960        0.0000000000          
C            -0.2000000030       -0.0555555520        0.0000000000          
C            -0.2000000030        0.2777777910        0.0000000000          
C             0.0000000000       -0.3888888960        0.0000000000          
C             0.0000000000        0.2777777910        0.0000000000          
C             0.2000000180       -0.3888888960        0.0000000000          
C             0.2000000180       -0.0555555520        0.0000000000          
C             0.2000000180        0.2777777910        0.0000000000          
C             0.4000000060       -0.3888888960        0.0000000000          
C             0.4000000060       -0.0555555520        0.0000000000    
C             0.4000000060        0.2777777910        0.0000000000       
C            -0.4000000060       -0.2777777910        0.0000000000          
C            -0.4000000060        0.0555555520        0.0000000000          
C            -0.4000000060        0.3888888960        0.0000000000          
C            -0.2000000030       -0.2777777910        0.0000000000          
C            -0.2000000030        0.0555555520        0.0000000000          
C            -0.2000000030        0.3888888960        0.0000000000          
C             0.0000000000       -0.2777777910        0.0000000000          
C             0.0000000000        0.3888888960        0.0000000000         
C             0.2000000180       -0.2777777910        0.0000000000          
C             0.2000000180        0.0555555520        0.0000000000         
C             0.2000000180        0.3888888960        0.0000000000          
C             0.4000000060       -0.2777777910        0.0000000000          
C             0.4000000060        0.0555555520        0.0000000000          
C             0.4000000060        0.3888888960        0.0000000000          
C            -0.3000000120       -0.2222222240        0.0000000000          
C            -0.3000000120        0.1111111040        0.0000000000          
C            -0.3000000120        0.4444444180        0.0000000000          
C            -0.0999999940       -0.2222222240        0.0000000000          
C            -0.0999999940        0.4444444180        0.0000000000      
C             0.0999999940       -0.2222222240        0.0000000000          
C             0.0999999940        0.4444444180        0.0000000000          
C             0.2999999820       -0.2222222240        0.0000000000          
C             0.2999999820        0.1111111040        0.0000000000          
C             0.2999999820        0.4444444180        0.0000000000      
C             0.4999999700       -0.2222222240        0.0000000000          
C             0.4999999700        0.1111111040        0.0000000000          
C             0.4999999700        0.4444444180        0.0000000000          
C            -0.3000000120       -0.1111111340        0.0000000000      
C            -0.3000000120        0.2222222090        0.0000000000          
C            -0.3000000120        0.5555555220        0.0000000000          
C            -0.0999999940        0.2222222090        0.0000000000          
C            -0.0999999940        0.5555555220        0.0000000000      
C             0.0999999940        0.2222222090        0.0000000000          
C             0.0999999940        0.5555555220        0.0000000000          
C             0.2999999820       -0.1111111340        0.0000000000          
C             0.2999999820        0.2222222090        0.0000000000          
C             0.2999999820        0.5555555220        0.0000000000          
C             0.4999999700       -0.1111111340        0.0000000000          
C             0.4999999700        0.2222222090        0.0000000000          
C             0.4999999700        0.5555555220        0.0000000000    
K_POINTS automatic
3 3 1 0 0 0
