&inputpp 
   outdir = './'
   prefix = 'graf'
   seedname = 'porfy'
   spin_component = 'none'
   write_mmn = .true.
   write_amn = .true.
   write_unk = .true.
   write_dmn = .true.  
! wan_mode = 'standalone'
/
