&CONTROL
                 calculation = 'relax'
                restart_mode = 'from_scratch',
                      outdir = './',
                  pseudo_dir = '../../pseudo/',
                      prefix = 'graf'   ,
                   verbosity = 'high',
                  wf_collect = .true.,
                       nstep = 200
/
&SYSTEM
         ibrav           =  8
         celldm(1)       =  23.2375
         celldm(2)       =  1.039230468 
         celldm(3)       =   1.60
         nat             =        59
         ntyp            =        3
         ecutwfc         =       50.00000000
         occupations     =  'smearing'
         smearing        =  'gauss'
         degauss         =        1.00000000e-03
!!         noncolin        =  .true.
!!         lspinorb        =  .true.
/
&electrons
         conv_thr        =        1.00000000e-08
         mixing_beta     =        3.00000000e-01
/
&ions
/
&cell
cell_dofree='all'
/
ATOMIC_SPECIES
Fe     55.845 Fe.pbe-spn-kjpaw_psl.1.0.0.UPF
N      14.0067 N.pbe-n-kjpaw_psl.1.0.0.UPF
C 12.011 C.pbe-n-kjpaw_psl.1.0.0.UPF
ATOMIC_POSITIONS crystal
   Fe      0.000000000     0.000000000     0.000000000  1  1  0
   N       0.099999994    -0.111111134     0.000000000  1  1  0
   N      -0.099999994    -0.111111134     0.000000000  1  1  0
   N       0.099999994     0.111111104     0.000000000  1  1  0
   N      -0.099999994     0.111111104     0.000000000  1  1  0
   C      -0.400000006    -0.388888896     0.000000000  0  0  0
   C      -0.400000006    -0.055555552     0.000000000  0  0  0
   C      -0.400000006     0.277777791     0.000000000  0  0  0
   C      -0.200000003    -0.388888896     0.000000000  0  0  0
   C      -0.200000003    -0.055555552     0.000000000  0  0  0
   C      -0.200000003     0.277777791     0.000000000  0  0  0
   C       0.000000000    -0.388888896     0.000000000  0  0  0
   C       0.000000000     0.277777791     0.000000000  0  0  0
   C       0.200000018    -0.388888896     0.000000000  0  0  0
   C       0.200000018    -0.055555552     0.000000000  0  0  0
   C       0.200000018     0.277777791     0.000000000  0  0  0
   C       0.400000006    -0.388888896     0.000000000  0  0  0
   C       0.400000006    -0.055555552     0.000000000  0  0  0
   C       0.400000006     0.277777791     0.000000000  0  0  0
   C      -0.400000006    -0.277777791     0.000000000  0  0  0
   C      -0.400000006     0.055555552     0.000000000  0  0  0
   C      -0.400000006     0.388888896     0.000000000  0  0  0
   C      -0.200000003    -0.277777791     0.000000000  0  0  0
   C      -0.200000003     0.055555552     0.000000000  0  0  0
   C      -0.200000003     0.388888896     0.000000000  0  0  0
   C       0.000000000    -0.277777791     0.000000000  0  0  0
   C       0.000000000     0.388888896     0.000000000  0  0  0
   C       0.200000018    -0.277777791     0.000000000  0  0  0
   C       0.200000018     0.055555552     0.000000000  0  0  0
   C       0.200000018     0.388888896     0.000000000  0  0  0
   C       0.400000006    -0.277777791     0.000000000  0  0  0
   C       0.400000006     0.055555552     0.000000000  0  0  0
   C       0.400000006     0.388888896     0.000000000  0  0  0
   C      -0.300000012    -0.222222224     0.000000000  0  0  0
   C      -0.300000012     0.111111104     0.000000000  0  0  0
   C      -0.300000012     0.444444418     0.000000000  0  0  0
   C      -0.099999994    -0.222222224     0.000000000  0  0  0
   C      -0.099999994     0.444444418     0.000000000  0  0  0
   C       0.099999994    -0.222222224     0.000000000  0  0  0
   C       0.099999994     0.444444418     0.000000000  0  0  0
   C       0.299999982    -0.222222224     0.000000000  0  0  0
   C       0.299999982     0.111111104     0.000000000  0  0  0
   C       0.299999982     0.444444418     0.000000000  0  0  0
   C       0.499999970    -0.222222224     0.000000000  0  0  0
   C       0.499999970     0.111111104     0.000000000  0  0  0
   C       0.499999970     0.444444418     0.000000000  0  0  0
   C      -0.300000012    -0.111111134     0.000000000  0  0  0
   C      -0.300000012     0.222222209     0.000000000  0  0  0
   C      -0.300000012     0.555555522     0.000000000  0  0  0
   C      -0.099999994     0.222222209     0.000000000  0  0  0
   C      -0.099999994     0.555555522     0.000000000  0  0  0
   C       0.099999994     0.222222209     0.000000000  0  0  0
   C       0.099999994     0.555555522     0.000000000  0  0  0
   C       0.299999982    -0.111111134     0.000000000  0  0  0
   C       0.299999982     0.222222209     0.000000000  0  0  0
   C       0.299999982     0.555555522     0.000000000  0  0  0
   C       0.499999970    -0.111111134     0.000000000  0  0  0
   C       0.499999970     0.222222209     0.000000000  0  0  0
   C       0.499999970     0.555555522     0.000000000  0  0  0
K_POINTS automatic
3 3 1 0 0 0
