&BANDS
prefix="graf"
outdir="./"
filband= "Band-Graf.dat"
/
