num_bands         =   8
num_wann          =   6

!dis_win_max =  5.0
!dis_win_min =  -20.0
!dis_froz_max = 5.0
!dis_froz_min = -20.0

begin projections
!V:dxy;dxz;dyz
!C: s,p
!C: px;py
!f= 0.167, 0.333, 0.00: s
!f=-0.333,-0.167, 0.00: s
!f= 0.167,-0.167, 0.00: s

C: sp2
C: s, px, py
end projections

!site_symmetry = .true.
!write_hr = .true.
bands_plot = .true.
wannier_plot = .true.
write_xyz = .true.

wannier_plot_supercell = 1

!exclude_bands=

begin kpoint_path
G  0.0  0.0  0.0  K  0.3333333333  0.3333333333  0.0
K  0.33333333333  0.33333333333  0.0  M  0.5  0.0  0.0
end kpoint_path

begin unit_cell_cart
bohr
4.650000000000000e0 0.000000000000000e0 0.000000000000000
-2.325000000000000 4.027018127597925 0.000000000000000
0.000000000000000 0.000000000000000 37.2000000000000
end unit_cell_cart

begin atoms_frac
C  0.0000000000000000        0.0000000000000000       0.00000000000000000
C  0.3333333333333333        0.6666666666666667       0.00000000000000000
end atoms_frac

mp_grid           = 5 5 1

begin kpoints
  0.00000000  0.00000000  0.00000000  4.000000e-02 
  0.00000000  0.20000000  0.00000000  4.000000e-02 
  0.00000000  0.40000000  0.00000000  4.000000e-02 
  0.00000000  0.60000000  0.00000000  4.000000e-02 
  0.00000000  0.80000000  0.00000000  4.000000e-02 
  0.20000000  0.00000000  0.00000000  4.000000e-02 
  0.20000000  0.20000000  0.00000000  4.000000e-02 
  0.20000000  0.40000000  0.00000000  4.000000e-02 
  0.20000000  0.60000000  0.00000000  4.000000e-02 
  0.20000000  0.80000000  0.00000000  4.000000e-02 
  0.40000000  0.00000000  0.00000000  4.000000e-02 
  0.40000000  0.20000000  0.00000000  4.000000e-02 
  0.40000000  0.40000000  0.00000000  4.000000e-02 
  0.40000000  0.60000000  0.00000000  4.000000e-02 
  0.40000000  0.80000000  0.00000000  4.000000e-02 
  0.60000000  0.00000000  0.00000000  4.000000e-02 
  0.60000000  0.20000000  0.00000000  4.000000e-02 
  0.60000000  0.40000000  0.00000000  4.000000e-02 
  0.60000000  0.60000000  0.00000000  4.000000e-02 
  0.60000000  0.80000000  0.00000000  4.000000e-02 
  0.80000000  0.00000000  0.00000000  4.000000e-02 
  0.80000000  0.20000000  0.00000000  4.000000e-02 
  0.80000000  0.40000000  0.00000000  4.000000e-02 
  0.80000000  0.60000000  0.00000000  4.000000e-02 
  0.80000000  0.80000000  0.00000000  4.000000e-02 
end kpoints
