&CONTROL
                 calculation = 'relax'
                restart_mode = 'from_scratch',
                      outdir = './',
                  pseudo_dir = '../../pseudo/',
                      prefix = 'graf'   ,
                   verbosity = 'high',
                  wf_collect = .true.,
                       nstep = 200
/
&SYSTEM
         ibrav           =  4
         celldm(1)       =   4.65
         celldm(3)       =   8.00
         nat             =        2
         ntyp            =        1
         ecutwfc         =       50.00000000
         occupations     =  'smearing'
         smearing        =  'gauss'
         degauss         =        1.00000000e-03
!!         noncolin        =  .true.
!!         lspinorb        =  .true.
/
&electrons
         conv_thr        =        1.00000000e-08
         mixing_beta     =        3.00000000e-01
   /
ATOMIC_SPECIES
C 12.011 C.pbe-n-kjpaw_psl.1.0.0.UPF
ATOMIC_POSITIONS crystal
C  0.0000000000000000        0.0000000000000000       0.00000000000000000
C  0.3333333333333333        0.6666666666666667       0.00000000000000000
K_POINTS automatic
10 10 1 0 0 0